c t wmc
c file mc2023_track2_162.cnf
p cnf 80 208
-44 -67 59 0
-57 1 56 0
-16 -49 -18 0
70 8 21 0
40 -39 53 0
-28 -65 -46 0
74 3 -1 0
-1 20 -27 0
-23 20 2 0
55 74 -58 0
-31 -19 -72 0
62 75 -33 0
-36 -7 -45 0
73 59 50 0
62 4 53 0
11 -60 -37 0
71 48 52 0
27 -34 -30 0
-51 76 31 0
-52 -27 68 0
-17 41 -23 0
14 -80 27 0
-31 4 -20 0
-64 55 -60 0
1 -23 -74 0
61 42 35 0
-60 -54 24 0
-5 -78 71 0
-15 -37 -4 0
-20 56 -76 0
35 70 -50 0
-30 -37 41 0
69 -9 -29 0
53 25 50 0
-47 -77 -42 0
80 67 -7 0
-47 72 -77 0
-2 52 53 0
-52 -33 36 0
66 14 -47 0
-46 -31 71 0
65 -16 32 0
-51 37 -30 0
-8 -1 24 0
-14 -72 25 0
42 40 38 0
-34 -58 -62 0
42 -27 70 0
22 12 -49 0
-41 63 -43 0
-18 8 30 0
9 -47 80 0
-73 -60 61 0
-6 -76 -51 0
79 -16 -7 0
78 63 51 0
-24 -46 -67 0
54 -58 43 0
44 19 54 0
-23 14 -38 0
68 -40 55 0
66 -8 79 0
5 2 6 0
10 -78 -1 0
57 -52 24 0
34 6 7 0
-19 -15 62 0
62 -73 66 0
-72 74 -37 0
-10 42 38 0
-25 78 26 0
-35 38 -58 0
76 56 44 0
-29 62 3 0
8 -51 71 0
-63 54 32 0
61 -42 -19 0
17 -70 68 0
-67 -66 -24 0
4 -9 2 0
65 17 -18 0
73 3 -11 0
-40 80 73 0
-80 -17 -28 0
34 -2 -39 0
-8 80 -79 0
-77 -41 -44 0
66 -47 -2 0
34 -19 48 0
-9 -79 -67 0
75 -21 16 0
59 -4 57 0
42 31 45 0
36 -2 39 0
-66 59 -52 0
-63 -7 -33 0
-26 -40 -74 0
60 -61 -45 0
33 -67 21 0
35 -4 -45 0
38 -42 -22 0
28 -13 -46 0
17 -75 5 0
78 34 51 0
-69 -76 12 0
-1 58 -19 0
11 -51 -28 0
28 80 -7 0
-33 -31 -46 0
-56 -57 10 0
-50 14 24 0
-28 43 73 0
-17 3 -15 0
43 75 35 0
-12 -3 39 0
-46 15 -3 0
-57 -11 -43 0
-66 37 -47 0
79 30 16 0
5 -33 23 0
61 71 -60 0
39 53 41 0
22 64 -56 0
-21 -39 71 0
-69 -72 -35 0
-29 26 48 0
-21 52 39 0
48 -52 -78 0
8 -6 -33 0
54 15 36 0
11 -25 32 0
-65 -18 75 0
6 -48 16 0
-50 70 43 0
50 -55 31 0
10 12 -57 0
7 -25 32 0
22 20 -2 0
-79 -22 -74 0
64 -21 55 0
-69 -54 -76 0
19 25 -76 0
74 -69 -72 0
10 -21 -61 0
57 49 38 0
-20 -77 -13 0
-17 49 65 0
-51 -17 -14 0
-48 -36 -45 0
9 23 20 0
-5 -12 -13 0
34 49 31 0
10 -6 4 0
-12 16 27 0
-75 -68 -37 0
32 65 63 0
70 29 68 0
-67 -30 -40 0
-41 53 -57 0
68 -28 47 0
-13 9 -30 0
15 -33 -22 0
39 -66 45 0
-26 78 55 0
-72 -65 64 0
29 -12 43 0
53 5 18 0
62 69 71 0
64 -53 56 0
-70 15 63 0
-13 -55 -58 0
80 63 -8 0
41 -63 -11 0
32 -29 78 0
-36 77 67 0
59 60 68 0
-43 -41 38 0
-76 35 -24 0
-47 -44 -49 0
3 64 -48 0
-58 -9 -13 0
34 23 -75 0
-36 -45 -54 0
-4 -36 -73 0
-40 -59 -49 0
62 77 38 0
-68 14 24 0
-5 61 -46 0
10 -11 -74 0
77 -29 -45 0
49 -70 26 0
-1 -71 -7 0
-73 15 -56 0
-64 21 -25 0
65 12 -44 0
26 19 44 0
35 28 -25 0
-32 -77 -18 0
-13 9 26 0
50 44 60 0
10 -13 37 0
69 -11 -29 0
79 26 40 0
-79 6 16 0
14 59 18 0
3 46 -22 0
-32 27 50 0
-75 -59 27 0
c p weight 64 0.56198809 0
c p weight -64 0.43801191 0
c p weight 22 0.55185271 0
c p weight -22 0.44814729 0
c p weight 1 1 0
c p weight -1 1 0
c p weight 2 1 0
c p weight -2 1 0
c p weight 3 1 0
c p weight -3 1 0
c p weight 4 1 0
c p weight -4 1 0
c p weight 5 1 0
c p weight -5 1 0
c p weight 6 1 0
c p weight -6 1 0
c p weight 7 1 0
c p weight -7 1 0
c p weight 8 1 0
c p weight -8 1 0
c p weight 9 1 0
c p weight -9 1 0
c p weight 10 1 0
c p weight -10 1 0
c p weight 11 1 0
c p weight -11 1 0
c p weight 12 1 0
c p weight -12 1 0
c p weight 13 1 0
c p weight -13 1 0
c p weight 14 1 0
c p weight -14 1 0
c p weight 15 1 0
c p weight -15 1 0
c p weight 16 1 0
c p weight -16 1 0
c p weight 17 1 0
c p weight -17 1 0
c p weight 18 1 0
c p weight -18 1 0
c p weight 19 1 0
c p weight -19 1 0
c p weight 20 1 0
c p weight -20 1 0
c p weight 21 1 0
c p weight -21 1 0
c p weight 23 1 0
c p weight -23 1 0
c p weight 24 1 0
c p weight -24 1 0
c p weight 25 1 0
c p weight -25 1 0
c p weight 26 1 0
c p weight -26 1 0
c p weight 27 1 0
c p weight -27 1 0
c p weight 28 1 0
c p weight -28 1 0
c p weight 29 1 0
c p weight -29 1 0
c p weight 30 1 0
c p weight -30 1 0
c p weight 31 1 0
c p weight -31 1 0
c p weight 32 1 0
c p weight -32 1 0
c p weight 33 1 0
c p weight -33 1 0
c p weight 34 1 0
c p weight -34 1 0
c p weight 35 1 0
c p weight -35 1 0
c p weight 36 1 0
c p weight -36 1 0
c p weight 37 1 0
c p weight -37 1 0
c p weight 38 1 0
c p weight -38 1 0
c p weight 39 1 0
c p weight -39 1 0
c p weight 40 1 0
c p weight -40 1 0
c p weight 41 1 0
c p weight -41 1 0
c p weight 42 1 0
c p weight -42 1 0
c p weight 43 1 0
c p weight -43 1 0
c p weight 44 1 0
c p weight -44 1 0
c p weight 45 1 0
c p weight -45 1 0
c p weight 46 1 0
c p weight -46 1 0
c p weight 47 1 0
c p weight -47 1 0
c p weight 48 1 0
c p weight -48 1 0
c p weight 49 1 0
c p weight -49 1 0
c p weight 50 1 0
c p weight -50 1 0
c p weight 51 1 0
c p weight -51 1 0
c p weight 52 1 0
c p weight -52 1 0
c p weight 53 1 0
c p weight -53 1 0
c p weight 54 1 0
c p weight -54 1 0
c p weight 55 1 0
c p weight -55 1 0
c p weight 56 1 0
c p weight -56 1 0
c p weight 57 1 0
c p weight -57 1 0
c p weight 58 1 0
c p weight -58 1 0
c p weight 59 1 0
c p weight -59 1 0
c p weight 60 1 0
c p weight -60 1 0
c p weight 61 1 0
c p weight -61 1 0
c p weight 62 1 0
c p weight -62 1 0
c p weight 63 1 0
c p weight -63 1 0
c p weight 65 1 0
c p weight -65 1 0
c p weight 66 1 0
c p weight -66 1 0
c p weight 67 1 0
c p weight -67 1 0
c p weight 68 1 0
c p weight -68 1 0
c p weight 69 1 0
c p weight -69 1 0
c p weight 70 1 0
c p weight -70 1 0
c p weight 71 1 0
c p weight -71 1 0
c p weight 72 1 0
c p weight -72 1 0
c p weight 73 1 0
c p weight -73 1 0
c p weight 74 1 0
c p weight -74 1 0
c p weight 75 1 0
c p weight -75 1 0
c p weight 76 1 0
c p weight -76 1 0
c p weight 77 1 0
c p weight -77 1 0
c p weight 78 1 0
c p weight -78 1 0
c p weight 79 1 0
c p weight -79 1 0
c p weight 80 1 0
c p weight -80 1 0
